N = 240;
M = 592;
Edge_Start = [1, 1, 2, 3, 3, 4, 5, 5, 7, 7, 9, 9, 10, 11, 11, 12, 13, 13, 14, 15, 16, 17, 17, 18, 19, 19, 20, 21, 22, 23, 23, 25, 25, 26, 27, 27, 28, 29, 31, 32, 33, 33, 34, 35, 35, 36, 37, 37, 38, 39, 39, 40, 41, 41, 42, 44, 44, 45, 46, 47, 48, 48, 49, 50, 52, 52, 53, 54, 54, 55, 56, 57, 58, 58, 59, 60, 60, 61, 62, 62, 63, 64, 64, 66, 67, 67, 68, 69, 69, 70, 71, 71, 72, 73, 73, 74, 75, 75, 76, 77, 77, 78, 79, 79, 80, 81, 82, 83, 84, 85, 85, 86, 88, 89, 90, 90, 91, 92, 92, 93, 94, 94, 95, 96, 96, 98, 98, 100, 100, 101, 102, 102, 103, 104, 105, 106, 107, 108, 108, 110, 111, 111, 112, 113, 113, 114, 115, 115, 116, 117, 117, 118, 119, 119, 120, 121, 121, 122, 123, 124, 125, 125, 127, 127, 128, 129, 131, 132, 132, 133, 134, 135, 136, 136, 137, 138, 138, 139, 140, 141, 142, 142, 144, 144, 145, 146, 146, 147, 148, 148, 149, 150, 150, 151, 152, 152, 154, 155, 156, 157, 157, 158, 159, 159, 160, 161, 161, 162, 163, 163, 165, 165, 166, 167, 167, 169, 169, 170, 171, 171, 172, 173, 173, 174, 176, 176, 177, 178, 178, 179, 180, 180, 181, 182, 182, 183, 184, 184, 185, 186, 187, 188, 188, 190, 191, 192, 193, 194, 194, 196, 196, 198, 199, 199, 201, 201, 202, 203, 203, 204, 205, 205, 206, 207, 207, 208, 209, 209, 210, 211, 211, 212, 213, 213, 214, 215, 215, 216, 217, 217, 218, 219, 220, 221, 223, 224, 225, 227, 229, 230, 231, 232, 234, 237, 238, 239, 2, 22, 3, 4, 24, 5, 6, 26, 8, 28, 10, 30, 11, 12, 32, 13, 14, 34, 15, 36, 17, 18, 38, 19, 20, 40, 21, 42, 23, 24, 45, 26, 47, 27, 28, 49, 29, 30, 53, 33, 34, 55, 35, 36, 57, 37, 38, 59, 39, 40, 61, 41, 42, 63, 43, 45, 66, 46, 47, 48, 49, 70, 50, 51, 53, 74, 54, 55, 76, 56, 57, 58, 59, 80, 60, 61, 82, 62, 63, 84, 64, 65, 86, 67, 68, 89, 69, 70, 91, 71, 72, 93, 73, 74, 95, 75, 76, 97, 77, 78, 99, 79, 80, 101, 81, 82, 83, 105, 85, 86, 107, 87, 89, 90, 91, 112, 92, 93, 114, 94, 95, 116, 96, 97, 118, 99, 120, 101, 122, 102, 103, 124, 104, 126, 106, 107, 108, 109, 130, 111, 112, 133, 113, 114, 135, 115, 116, 137, 117, 118, 139, 119, 120, 141, 121, 122, 143, 123, 124, 125, 126, 147, 128, 149, 129, 151, 153, 133, 154, 134, 135, 136, 137, 158, 138, 139, 160, 140, 141, 142, 143, 164, 145, 166, 146, 147, 168, 148, 149, 170, 150, 151, 172, 152, 153, 174, 155, 156, 157, 158, 179, 159, 160, 181, 161, 162, 183, 163, 164, 185, 166, 187, 167, 168, 189, 170, 191, 171, 172, 193, 173, 174, 195, 175, 177, 198, 178, 179, 200, 180, 181, 202, 182, 183, 204, 184, 185, 206, 186, 187, 188, 189, 210, 191, 192, 214, 194, 195, 216, 197, 218, 199, 200, 220, 202, 222, 203, 204, 224, 205, 206, 226, 207, 208, 228, 209, 210, 230, 211, 212, 232, 213, 214, 234, 215, 216, 236, 217, 218, 238, 219, 240, 221, 222, 224, 225, 226, 228, 230, 231, 232, 233, 235, 238, 239, 240];
Edge_End = [2, 22, 3, 4, 24, 5, 6, 26, 8, 28, 10, 30, 11, 12, 32, 13, 14, 34, 15, 36, 17, 18, 38, 19, 20, 40, 21, 42, 23, 24, 45, 26, 47, 27, 28, 49, 29, 30, 53, 33, 34, 55, 35, 36, 57, 37, 38, 59, 39, 40, 61, 41, 42, 63, 43, 45, 66, 46, 47, 48, 49, 70, 50, 51, 53, 74, 54, 55, 76, 56, 57, 58, 59, 80, 60, 61, 82, 62, 63, 84, 64, 65, 86, 67, 68, 89, 69, 70, 91, 71, 72, 93, 73, 74, 95, 75, 76, 97, 77, 78, 99, 79, 80, 101, 81, 82, 83, 105, 85, 86, 107, 87, 89, 90, 91, 112, 92, 93, 114, 94, 95, 116, 96, 97, 118, 99, 120, 101, 122, 102, 103, 124, 104, 126, 106, 107, 108, 109, 130, 111, 112, 133, 113, 114, 135, 115, 116, 137, 117, 118, 139, 119, 120, 141, 121, 122, 143, 123, 124, 125, 126, 147, 128, 149, 129, 151, 153, 133, 154, 134, 135, 136, 137, 158, 138, 139, 160, 140, 141, 142, 143, 164, 145, 166, 146, 147, 168, 148, 149, 170, 150, 151, 172, 152, 153, 174, 155, 156, 157, 158, 179, 159, 160, 181, 161, 162, 183, 163, 164, 185, 166, 187, 167, 168, 189, 170, 191, 171, 172, 193, 173, 174, 195, 175, 177, 198, 178, 179, 200, 180, 181, 202, 182, 183, 204, 184, 185, 206, 186, 187, 188, 189, 210, 191, 192, 214, 194, 195, 216, 197, 218, 199, 200, 220, 202, 222, 203, 204, 224, 205, 206, 226, 207, 208, 228, 209, 210, 230, 211, 212, 232, 213, 214, 234, 215, 216, 236, 217, 218, 238, 219, 240, 221, 222, 224, 225, 226, 228, 230, 231, 232, 233, 235, 238, 239, 240, 1, 1, 2, 3, 3, 4, 5, 5, 7, 7, 9, 9, 10, 11, 11, 12, 13, 13, 14, 15, 16, 17, 17, 18, 19, 19, 20, 21, 22, 23, 23, 25, 25, 26, 27, 27, 28, 29, 31, 32, 33, 33, 34, 35, 35, 36, 37, 37, 38, 39, 39, 40, 41, 41, 42, 44, 44, 45, 46, 47, 48, 48, 49, 50, 52, 52, 53, 54, 54, 55, 56, 57, 58, 58, 59, 60, 60, 61, 62, 62, 63, 64, 64, 66, 67, 67, 68, 69, 69, 70, 71, 71, 72, 73, 73, 74, 75, 75, 76, 77, 77, 78, 79, 79, 80, 81, 82, 83, 84, 85, 85, 86, 88, 89, 90, 90, 91, 92, 92, 93, 94, 94, 95, 96, 96, 98, 98, 100, 100, 101, 102, 102, 103, 104, 105, 106, 107, 108, 108, 110, 111, 111, 112, 113, 113, 114, 115, 115, 116, 117, 117, 118, 119, 119, 120, 121, 121, 122, 123, 124, 125, 125, 127, 127, 128, 129, 131, 132, 132, 133, 134, 135, 136, 136, 137, 138, 138, 139, 140, 141, 142, 142, 144, 144, 145, 146, 146, 147, 148, 148, 149, 150, 150, 151, 152, 152, 154, 155, 156, 157, 157, 158, 159, 159, 160, 161, 161, 162, 163, 163, 165, 165, 166, 167, 167, 169, 169, 170, 171, 171, 172, 173, 173, 174, 176, 176, 177, 178, 178, 179, 180, 180, 181, 182, 182, 183, 184, 184, 185, 186, 187, 188, 188, 190, 191, 192, 193, 194, 194, 196, 196, 198, 199, 199, 201, 201, 202, 203, 203, 204, 205, 205, 206, 207, 207, 208, 209, 209, 210, 211, 211, 212, 213, 213, 214, 215, 215, 216, 217, 217, 218, 219, 220, 221, 223, 224, 225, 227, 229, 230, 231, 232, 234, 237, 238, 239];
L = [17, 10, 12, 2, 19, 14, 1, 14, 15, 14, 4, 4, 11, 6, 7, 19, 9, 7, 10, 13, 19, 12, 5, 13, 11, 7, 17, 3, 8, 5, 13, 3, 7, 4, 10, 4, 12, 14, 5, 8, 19, 16, 1, 9, 14, 14, 5, 19, 13, 11, 18, 8, 8, 7, 8, 3, 9, 3, 15, 9, 3, 2, 2, 14, 10, 5, 17, 1, 12, 1, 8, 13, 11, 18, 2, 11, 8, 1, 18, 16, 4, 8, 13, 10, 9, 7, 17, 9, 6, 6, 19, 19, 4, 16, 19, 11, 14, 12, 9, 4, 1, 6, 5, 11, 16, 3, 3, 2, 3, 6, 3, 13, 15, 18, 7, 11, 1, 15, 1, 2, 15, 10, 18, 18, 19, 7, 12, 6, 13, 13, 6, 14, 5, 9, 1, 10, 6, 4, 12, 8, 18, 17, 12, 7, 11, 7, 17, 2, 2, 14, 14, 1, 1, 11, 17, 2, 12, 13, 12, 4, 13, 11, 12, 5, 8, 1, 8, 4, 1, 10, 7, 9, 13, 15, 10, 15, 13, 9, 1, 1, 2, 17, 6, 3, 6, 18, 17, 17, 14, 16, 18, 11, 12, 8, 10, 18, 15, 1, 11, 10, 7, 11, 8, 16, 16, 12, 13, 1, 14, 14, 10, 8, 1, 6, 15, 2, 5, 19, 9, 6, 18, 3, 3, 1, 13, 5, 13, 1, 12, 2, 9, 18, 8, 8, 10, 17, 12, 1, 2, 18, 17, 6, 14, 17, 4, 19, 4, 3, 17, 18, 15, 11, 16, 4, 9, 3, 17, 18, 3, 1, 8, 3, 4, 2, 7, 9, 19, 2, 17, 3, 7, 11, 1, 11, 14, 14, 4, 4, 10, 1, 17, 5, 6, 18, 17, 12, 12, 5, 7, 17, 9, 18, 13, 1, 3, 7, 17, 10, 12, 2, 19, 14, 1, 14, 15, 14, 4, 4, 11, 6, 7, 19, 9, 7, 10, 13, 19, 12, 5, 13, 11, 7, 17, 3, 8, 5, 13, 3, 7, 4, 10, 4, 12, 14, 5, 8, 19, 16, 1, 9, 14, 14, 5, 19, 13, 11, 18, 8, 8, 7, 8, 3, 9, 3, 15, 9, 3, 2, 2, 14, 10, 5, 17, 1, 12, 1, 8, 13, 11, 18, 2, 11, 8, 1, 18, 16, 4, 8, 13, 10, 9, 7, 17, 9, 6, 6, 19, 19, 4, 16, 19, 11, 14, 12, 9, 4, 1, 6, 5, 11, 16, 3, 3, 2, 3, 6, 3, 13, 15, 18, 7, 11, 1, 15, 1, 2, 15, 10, 18, 18, 19, 7, 12, 6, 13, 13, 6, 14, 5, 9, 1, 10, 6, 4, 12, 8, 18, 17, 12, 7, 11, 7, 17, 2, 2, 14, 14, 1, 1, 11, 17, 2, 12, 13, 12, 4, 13, 11, 12, 5, 8, 1, 8, 4, 1, 10, 7, 9, 13, 15, 10, 15, 13, 9, 1, 1, 2, 17, 6, 3, 6, 18, 17, 17, 14, 16, 18, 11, 12, 8, 10, 18, 15, 1, 11, 10, 7, 11, 8, 16, 16, 12, 13, 1, 14, 14, 10, 8, 1, 6, 15, 2, 5, 19, 9, 6, 18, 3, 3, 1, 13, 5, 13, 1, 12, 2, 9, 18, 8, 8, 10, 17, 12, 1, 2, 18, 17, 6, 14, 17, 4, 19, 4, 3, 17, 18, 15, 11, 16, 4, 9, 3, 17, 18, 3, 1, 8, 3, 4, 2, 7, 9, 19, 2, 17, 3, 7, 11, 1, 11, 14, 14, 4, 4, 10, 1, 17, 5, 6, 18, 17, 12, 12, 5, 7, 17, 9, 18, 13, 1, 3, 7];
T = [16, 15, 10, 1, 25, 20, 1, 12, 18, 16, 12, 3, 19, 6, 6, 10, 7, 9, 14, 16, 22, 11, 2, 15, 8, 8, 21, 5, 1, 2, 18, 4, 1, 7, 13, 10, 13, 13, 10, 6, 13, 12, 5, 8, 15, 11, 6, 22, 10, 7, 9, 6, 4, 13, 13, 1, 11, 1, 18, 3, 7, 9, 4, 16, 7, 8, 16, 2, 10, 3, 7, 20, 10, 11, 1, 9, 1, 6, 21, 12, 12, 10, 10, 12, 11, 10, 15, 10, 6, 7, 23, 16, 5, 21, 27, 16, 17, 10, 4, 5, 1, 6, 7, 14, 14, 8, 2, 1, 1, 13, 1, 10, 23, 20, 13, 17, 3, 21, 1, 1, 15, 4, 23, 20, 21, 8, 7, 15, 12, 11, 3, 9, 1, 7, 4, 13, 1, 1, 10, 17, 21, 29, 17, 4, 3, 3, 24, 1, 2, 13, 16, 1, 10, 11, 18, 1, 19, 23, 19, 3, 7, 7, 6, 7, 9, 1, 9, 8, 1, 17, 3, 11, 7, 20, 8, 6, 4, 13, 1, 2, 1, 17, 1, 1, 18, 22, 24, 16, 13, 25, 20, 16, 7, 11, 8, 19, 19, 4, 9, 14, 7, 1, 6, 19, 18, 7, 5, 1, 2, 18, 16, 9, 3, 1, 15, 2, 9, 22, 24, 2, 14, 1, 1, 1, 9, 1, 17, 1, 12, 1, 8, 14, 14, 11, 10, 15, 11, 1, 9, 12, 13, 1, 3, 14, 4, 15, 11, 1, 22, 21, 7, 12, 13, 1, 11, 1, 24, 17, 1, 1, 13, 7, 2, 9, 12, 6, 25, 1, 9, 2, 5, 11, 1, 1, 10, 19, 5, 1, 14, 1, 20, 1, 5, 23, 9, 8, 12, 15, 5, 11, 6, 26, 18, 4, 5, 3, 16, 15, 10, 1, 25, 20, 1, 12, 18, 16, 12, 3, 19, 6, 6, 10, 7, 9, 14, 16, 22, 11, 2, 15, 8, 8, 21, 5, 1, 2, 18, 4, 1, 7, 13, 10, 13, 13, 10, 6, 13, 12, 5, 8, 15, 11, 6, 22, 10, 7, 9, 6, 4, 13, 13, 1, 11, 1, 18, 3, 7, 9, 4, 16, 7, 8, 16, 2, 10, 3, 7, 20, 10, 11, 1, 9, 1, 6, 21, 12, 12, 10, 10, 12, 11, 10, 15, 10, 6, 7, 23, 16, 5, 21, 27, 16, 17, 10, 4, 5, 1, 6, 7, 14, 14, 8, 2, 1, 1, 13, 1, 10, 23, 20, 13, 17, 3, 21, 1, 1, 15, 4, 23, 20, 21, 8, 7, 15, 12, 11, 3, 9, 1, 7, 4, 13, 1, 1, 10, 17, 21, 29, 17, 4, 3, 3, 24, 1, 2, 13, 16, 1, 10, 11, 18, 1, 19, 23, 19, 3, 7, 7, 6, 7, 9, 1, 9, 8, 1, 17, 3, 11, 7, 20, 8, 6, 4, 13, 1, 2, 1, 17, 1, 1, 18, 22, 24, 16, 13, 25, 20, 16, 7, 11, 8, 19, 19, 4, 9, 14, 7, 1, 6, 19, 18, 7, 5, 1, 2, 18, 16, 9, 3, 1, 15, 2, 9, 22, 24, 2, 14, 1, 1, 1, 9, 1, 17, 1, 12, 1, 8, 14, 14, 11, 10, 15, 11, 1, 9, 12, 13, 1, 3, 14, 4, 15, 11, 1, 22, 21, 7, 12, 13, 1, 11, 1, 24, 17, 1, 1, 13, 7, 2, 9, 12, 6, 25, 1, 9, 2, 5, 11, 1, 1, 10, 19, 5, 1, 14, 1, 20, 1, 5, 23, 9, 8, 12, 15, 5, 11, 6, 26, 18, 4, 5, 3];
Lower_Bound = [0, 16, 26, 27, 47, 48, 94, 112, 107, 119, 138, 144, 154, 161, 175, 217, 195, 206, 208, 216, 215, 15, 16, 18, 54, 58, 65, 78, 91, 104, 146, 144, 150, 163, 168, 176, 187, 193, 193, 200, 206, 210, 223, 35, 34, 35, 53, 56, 63, 67, 83, 129, 136, 149, 151, 154, 161, 164, 174, 175, 184, 190, 211, 219, 229, 46, 58, 69, 75, 65, 72, 95, 100, 121, 137, 139, 135, 140, 146, 153, 167, 175, 177, 197, 196, 209, 219, 91, 68, 88, 81, 84, 88, 89, 104, 127, 147, 126, 134, 150, 160, 171, 174, 175, 178, 182, 195, 196, 197, 143, 126, 105, 89, 85, 88, 93, 95, 108, 109, 119, 137, 138, 161, 180, 183, 182, 226, 232, 241, 206, 270, 120, 112, 95, 92, 96, 89, 97, 103, 116, 117, 119, 120, 192, 193, 211, 190, 206, 219, 239, 242, 253, 261, 121, 135, 131, 122, 108, 107, 101, 119, 126, 127, 129, 175, 191, 194, 195, 222, 224, 246, 246, 247, 248, 249, 156, 147, 130, 129, 130, 126, 135, 124, 139, 145, 154, 166, 179, 180, 227, 213, 209, 248, 245, 246, 245, 266, 157, 155, 142, 155, 144, 162, 145, 146, 140, 142, 151, 157, 182, 180, 182, 193, 194, 204, 223, 224, 238, 234, 156, 161, 156, 172, 163, 165, 153, 169, 154, 163, 158, 169, 175, 201, 194, 212, 209, 229, 225, 230, 233];
Upper_Bound = [0, 16, 26, 27, 47, 48, 94, 112, 107, 119, 138, 144, 154, 161, 175, 217, 195, 206, 208, 216, 215, 15, 16, 18, 54, 58, 65, 78, 91, 104, 146, 144, 150, 163, 168, 176, 187, 193, 193, 200, 206, 210, 223, 35, 34, 35, 53, 56, 63, 67, 83, 129, 136, 149, 151, 154, 161, 164, 174, 175, 184, 190, 211, 219, 229, 46, 58, 69, 75, 65, 72, 95, 100, 121, 137, 139, 135, 140, 146, 153, 167, 175, 177, 197, 196, 209, 219, 91, 68, 88, 81, 84, 88, 89, 104, 127, 147, 126, 134, 150, 160, 171, 174, 175, 178, 182, 195, 196, 197, 143, 126, 105, 89, 85, 88, 93, 95, 108, 109, 119, 137, 138, 161, 180, 183, 182, 226, 232, 241, 206, 270, 120, 112, 95, 92, 96, 89, 97, 103, 116, 117, 119, 120, 192, 193, 211, 190, 206, 219, 239, 242, 253, 261, 121, 135, 131, 122, 108, 107, 101, 119, 126, 127, 129, 175, 191, 194, 195, 222, 224, 246, 246, 247, 248, 249, 156, 147, 130, 129, 130, 126, 135, 124, 139, 145, 154, 166, 179, 180, 227, 213, 209, 248, 245, 246, 245, 266, 157, 155, 142, 155, 144, 162, 145, 146, 140, 142, 151, 157, 182, 180, 182, 193, 194, 204, 223, 224, 238, 234, 156, 161, 156, 172, 163, 165, 153, 169, 154, 163, 158, 169, 175, 201, 194, 212, 209, 229, 225, 230, 233];
Start = 1;
End = 240;
Time = 233;
